; benchmark generated from python API
(set-info :status unknown)
(declare-fun x_days () Int)
(declare-fun y_days () Int)
(assert
 (>= x_days (- 36584)))
(assert
 (<= x_days 36829))
(assert
 (>= y_days (- 36584)))
(assert
 (<= y_days 36829))
(assert
 (= x_days 7275))
(assert
 (= y_days 6910))
(assert
 (let ((?x939 (+ x_days 730179)))
 (let ((?x507 (mod ?x939 146097)))
 (let ((?x764 (div ?x507 36524)))
 (let ((?x1806 (ite (<= 4 ?x764) 3 ?x764)))
 (let ((?x621 (- ?x507 (* ?x1806 36524))))
 (let ((?x407 (mod ?x621 1461)))
 (let ((?x690 (div ?x407 365)))
 (let ((?x437 (ite (<= 4 ?x690) 3 ?x690)))
 (let ((?x473 (+ (+ (* (div ?x939 146097) 400) (* ?x1806 100)) (* (div ?x621 1461) 4))))
 (let ((?x665 (+ (+ ?x473 ?x437) 1)))
 (let (($x756 (or (and (= (mod ?x665 4) 0) (and (distinct (mod ?x665 100) 0) true)) (= (mod ?x665 400) 0))))
 (let ((?x438 (- ?x407 (* ?x437 365))))
 (let ((?x464 (ite $x756 31 31)))
 (let (($x348 (>= ?x438 ?x464)))
 (let ((?x225 (ite $x348 (+ (- ?x438 ?x464) 1) (+ (- ?x438 (ite $x756 0 0)) 1))))
 (let ((?x588 (ite $x756 60 59)))
 (let (($x489 (>= ?x438 ?x588)))
 (let ((?x909 (ite $x756 91 90)))
 (let (($x320 (>= ?x438 ?x909)))
 (let ((?x275 (ite $x320 (+ (- ?x438 ?x909) 1) (ite $x489 (+ (- ?x438 ?x588) 1) ?x225))))
 (let ((?x675 (ite $x756 121 120)))
 (let (($x583 (>= ?x438 ?x675)))
 (let ((?x868 (ite $x756 152 151)))
 (let (($x2983 (>= ?x438 ?x868)))
 (let ((?x687 (ite $x2983 (+ (- ?x438 ?x868) 1) (ite $x583 (+ (- ?x438 ?x675) 1) ?x275))))
 (let ((?x911 (ite $x756 182 181)))
 (let (($x240 (>= ?x438 ?x911)))
 (let ((?x582 (ite $x756 213 212)))
 (let (($x663 (>= ?x438 ?x582)))
 (let ((?x1281 (ite $x663 (+ (- ?x438 ?x582) 1) (ite $x240 (+ (- ?x438 ?x911) 1) ?x687))))
 (let ((?x206 (ite $x756 244 243)))
 (let (($x504 (>= ?x438 ?x206)))
 (let ((?x237 (ite $x756 274 273)))
 (let (($x387 (>= ?x438 ?x237)))
 (let ((?x601 (ite $x387 (+ (- ?x438 ?x237) 1) (ite $x504 (+ (- ?x438 ?x206) 1) ?x1281))))
 (let ((?x470 (ite $x756 305 304)))
 (let (($x654 (>= ?x438 ?x470)))
 (let ((?x602 (ite $x756 335 334)))
 (let (($x340 (>= ?x438 ?x602)))
 (let ((?x919 (ite $x340 (+ (- ?x438 ?x602) 1) (ite $x654 (+ (- ?x438 ?x470) 1) ?x601))))
 (let ((?x485 (+ (* 0 12) 1)))
 (let ((?x646 (ite $x583 5 (ite $x320 4 (ite $x489 3 (ite $x348 2 1))))))
 (let ((?x214 (ite $x504 9 (ite $x663 8 (ite $x240 7 (ite $x2983 6 ?x646))))))
 (let ((?x590 (- (+ (ite $x340 12 (ite $x654 11 (ite $x387 10 ?x214))) ?x485) 1)))
 (let ((?x1431 (+ (mod ?x590 12) 1)))
 (let ((?x693 (ite (or (= ?x1431 4) (= ?x1431 6) (= ?x1431 9) (= ?x1431 11)) 30 31)))
 (let (($x751 (and (= (mod (+ ?x665 (+ 0 (div ?x590 12))) 4) 0) (and (distinct (mod (+ ?x665 (+ 0 (div ?x590 12))) 100) 0) true))))
 (let (($x664 (or $x751 (= (mod (+ ?x665 (+ 0 (div ?x590 12))) 400) 0))))
 (let ((?x707 (ite (= ?x1431 2) (ite $x664 29 28) ?x693)))
 (let ((?x653 (ite (> 1 ?x919) 1 (ite (> ?x919 ?x707) ?x707 ?x919))))
 (let ((?x638 (ite (> 1 ?x653) 1 (ite (> ?x653 ?x707) ?x707 ?x653))))
 (let ((?x604 (ite (= 2 ?x1431) (ite $x664 31 31) (ite (= 1 ?x1431) (ite $x664 0 0) 0))))
 (let ((?x575 (ite (= 4 ?x1431) (ite $x664 91 90) (ite (= 3 ?x1431) (ite $x664 60 59) ?x604))))
 (let ((?x436 (ite (= 6 ?x1431) (ite $x664 152 151) (ite (= 5 ?x1431) (ite $x664 121 120) ?x575))))
 (let ((?x412 (ite (= 8 ?x1431) (ite $x664 213 212) (ite (= 7 ?x1431) (ite $x664 182 181) ?x436))))
 (let ((?x608 (ite (= 10 ?x1431) (ite $x664 274 273) (ite (= 9 ?x1431) (ite $x664 244 243) ?x412))))
 (let ((?x331 (ite (= 12 ?x1431) (ite $x664 335 334) (ite (= 11 ?x1431) (ite $x664 305 304) ?x608))))
 (let ((?x449 (+ (* 365 (- (+ ?x665 (+ 0 (div ?x590 12))) 1)) (div (- (+ ?x665 (+ 0 (div ?x590 12))) 1) 4))))
 (let ((?x515 (+ (- ?x449 (div (- (+ ?x665 (+ 0 (div ?x590 12))) 1) 100)) (div (- (+ ?x665 (+ 0 (div ?x590 12))) 1) 400))))
 (let ((?x927 (+ (+ (- (+ (+ ?x515 ?x331) (- ?x638 1)) 730179) 0) 730179)))
 (let ((?x930 (mod ?x927 146097)))
 (let ((?x642 (div ?x930 36524)))
 (let ((?x226 (ite (<= 4 ?x642) 3 ?x642)))
 (let ((?x2982 (- ?x930 (* ?x226 36524))))
 (let ((?x892 (mod ?x2982 1461)))
 (let ((?x2091 (div ?x892 365)))
 (let ((?x465 (ite (<= 4 ?x2091) 3 ?x2091)))
 (let ((?x712 (+ (+ (* (div ?x927 146097) 400) (* ?x226 100)) (* (div ?x2982 1461) 4))))
 (let ((?x591 (+ (+ ?x712 ?x465) 1)))
 (let (($x1900 (or (and (= (mod ?x591 4) 0) (and (distinct (mod ?x591 100) 0) true)) (= (mod ?x591 400) 0))))
 (let ((?x516 (- ?x892 (* ?x465 365))))
 (let ((?x933 (ite $x1900 31 31)))
 (let (($x714 (>= ?x516 ?x933)))
 (let ((?x1565 (ite $x714 (+ (- ?x516 ?x933) 1) (+ (- ?x516 (ite $x1900 0 0)) 1))))
 (let ((?x273 (ite $x1900 60 59)))
 (let (($x744 (>= ?x516 ?x273)))
 (let ((?x596 (ite $x1900 91 90)))
 (let (($x703 (>= ?x516 ?x596)))
 (let ((?x702 (ite $x703 (+ (- ?x516 ?x596) 1) (ite $x744 (+ (- ?x516 ?x273) 1) ?x1565))))
 (let ((?x3299 (ite $x1900 121 120)))
 (let (($x614 (>= ?x516 ?x3299)))
 (let ((?x992 (ite $x1900 152 151)))
 (let (($x618 (>= ?x516 ?x992)))
 (let ((?x456 (ite $x618 (+ (- ?x516 ?x992) 1) (ite $x614 (+ (- ?x516 ?x3299) 1) ?x702))))
 (let ((?x891 (ite $x1900 182 181)))
 (let (($x350 (>= ?x516 ?x891)))
 (let ((?x729 (ite $x1900 213 212)))
 (let (($x352 (>= ?x516 ?x729)))
 (let ((?x713 (ite $x352 (+ (- ?x516 ?x729) 1) (ite $x350 (+ (- ?x516 ?x891) 1) ?x456))))
 (let ((?x587 (ite $x1900 244 243)))
 (let (($x685 (>= ?x516 ?x587)))
 (let ((?x611 (ite $x1900 274 273)))
 (let (($x459 (>= ?x516 ?x611)))
 (let ((?x867 (ite $x459 (+ (- ?x516 ?x611) 1) (ite $x685 (+ (- ?x516 ?x587) 1) ?x713))))
 (let ((?x832 (ite $x1900 305 304)))
 (let (($x248 (>= ?x516 ?x832)))
 (let ((?x697 (ite $x1900 335 334)))
 (let (($x525 (>= ?x516 ?x697)))
 (let ((?x830 (ite $x525 (+ (- ?x516 ?x697) 1) (ite $x248 (+ (- ?x516 ?x832) 1) ?x867))))
 (let (($x573 (= 0 0)))
 (let (($x2792 (= (mod (ite $x573 (+ ?x665 (+ 0 (div ?x590 12))) ?x591) 400) 0)))
 (let (($x780 (and (distinct (mod (ite $x573 (+ ?x665 (+ 0 (div ?x590 12))) ?x591) 100) 0) true)))
 (let (($x332 (= (mod (ite $x573 (+ ?x665 (+ 0 (div ?x590 12))) ?x591) 4) 0)))
 (let (($x2212 (or (and $x332 $x780) $x2792)))
 (let ((?x837 (ite $x614 5 (ite $x703 4 (ite $x744 3 (ite $x714 2 1))))))
 (let ((?x704 (ite $x685 9 (ite $x352 8 (ite $x350 7 (ite $x618 6 ?x837))))))
 (let ((?x607 (ite $x573 ?x1431 (ite $x525 12 (ite $x248 11 (ite $x459 10 ?x704))))))
 (let ((?x856 (ite (= 2 ?x607) (ite $x2212 31 31) (ite (= 1 ?x607) (ite $x2212 0 0) 0))))
 (let ((?x578 (ite (= 4 ?x607) (ite $x2212 91 90) (ite (= 3 ?x607) (ite $x2212 60 59) ?x856))))
 (let ((?x761 (ite (= 6 ?x607) (ite $x2212 152 151) (ite (= 5 ?x607) (ite $x2212 121 120) ?x578))))
 (let ((?x581 (ite (= 8 ?x607) (ite $x2212 213 212) (ite (= 7 ?x607) (ite $x2212 182 181) ?x761))))
 (let ((?x434 (ite (= 10 ?x607) (ite $x2212 274 273) (ite (= 9 ?x607) (ite $x2212 244 243) ?x581))))
 (let ((?x711 (ite (= 12 ?x607) (ite $x2212 335 334) (ite (= 11 ?x607) (ite $x2212 305 304) ?x434))))
 (let ((?x963 (+ ?x665 (+ 0 (div ?x590 12)))))
 (let ((?x3037 (ite $x573 ?x963 ?x591)))
 (let ((?x572 (- ?x3037 1)))
 (let ((?x641 (+ (- (+ (* 365 ?x572) (div ?x572 4)) (div ?x572 100)) (div ?x572 400))))
 (= (- (+ (+ ?x641 ?x711) (- (ite $x573 ?x638 ?x830) 1)) 730179) 7304)))))))))))))))))))))))))))))))))))))))))))))))))))))))))))))))))))))))))))))))))))))))))))))))))))))))))))))))))))))))
(assert
 (let ((?x454 (+ y_days 730179)))
(let ((?x509 (mod ?x454 146097)))
(let ((?x239 (div ?x509 36524)))
(let ((?x1416 (ite (<= 4 ?x239) 3 ?x239)))
(let ((?x1549 (- ?x509 (* ?x1416 36524))))
(let ((?x677 (mod ?x1549 1461)))
(let ((?x2817 (div ?x677 365)))
(let ((?x281 (ite (<= 4 ?x2817) 3 ?x2817)))
(let ((?x594 (+ (+ (* (div ?x454 146097) 400) (* ?x1416 100)) (* (div ?x1549 1461) 4))))
(let ((?x2390 (+ (+ ?x594 ?x281) 1)))
(let (($x3674 (or (and (= (mod ?x2390 4) 0) (and (distinct (mod ?x2390 100) 0) true)) (= (mod ?x2390 400) 0))))
(let ((?x3391 (- ?x677 (* ?x281 365))))
(let ((?x3364 (ite $x3674 31 31)))
(let (($x2939 (>= ?x3391 ?x3364)))
(let ((?x996 (ite $x2939 (+ (- ?x3391 ?x3364) 1) (+ (- ?x3391 (ite $x3674 0 0)) 1))))
(let ((?x841 (ite $x3674 60 59)))
(let (($x1477 (>= ?x3391 ?x841)))
(let ((?x429 (ite $x3674 91 90)))
(let (($x2583 (>= ?x3391 ?x429)))
(let ((?x2845 (ite $x2583 (+ (- ?x3391 ?x429) 1) (ite $x1477 (+ (- ?x3391 ?x841) 1) ?x996))))
(let ((?x3578 (ite $x3674 121 120)))
(let (($x1213 (>= ?x3391 ?x3578)))
(let ((?x3667 (ite $x3674 152 151)))
(let (($x2380 (>= ?x3391 ?x3667)))
(let ((?x1803 (ite $x2380 (+ (- ?x3391 ?x3667) 1) (ite $x1213 (+ (- ?x3391 ?x3578) 1) ?x2845))))
(let ((?x886 (ite $x3674 182 181)))
(let (($x3671 (>= ?x3391 ?x886)))
(let ((?x755 (ite $x3674 213 212)))
(let (($x338 (>= ?x3391 ?x755)))
(let ((?x3191 (ite $x338 (+ (- ?x3391 ?x755) 1) (ite $x3671 (+ (- ?x3391 ?x886) 1) ?x1803))))
(let ((?x2919 (ite $x3674 244 243)))
(let (($x3678 (>= ?x3391 ?x2919)))
(let ((?x230 (ite $x3674 274 273)))
(let (($x1176 (>= ?x3391 ?x230)))
(let ((?x1543 (ite $x1176 (+ (- ?x3391 ?x230) 1) (ite $x3678 (+ (- ?x3391 ?x2919) 1) ?x3191))))
(let ((?x3066 (ite $x3674 305 304)))
(let (($x1918 (>= ?x3391 ?x3066)))
(let ((?x2349 (ite $x3674 335 334)))
(let (($x2497 (>= ?x3391 ?x2349)))
(let ((?x1204 (ite $x2497 (+ (- ?x3391 ?x2349) 1) (ite $x1918 (+ (- ?x3391 ?x3066) 1) ?x1543))))
(let ((?x485 (+ (* 0 12) 1)))
(let ((?x314 (ite $x1213 5 (ite $x2583 4 (ite $x1477 3 (ite $x2939 2 1))))))
(let ((?x3393 (ite $x3678 9 (ite $x338 8 (ite $x3671 7 (ite $x2380 6 ?x314))))))
(let ((?x2587 (- (+ (ite $x2497 12 (ite $x1918 11 (ite $x1176 10 ?x3393))) ?x485) 1)))
(let ((?x354 (+ (mod ?x2587 12) 1)))
(let ((?x3135 (ite (or (= ?x354 4) (= ?x354 6) (= ?x354 9) (= ?x354 11)) 30 31)))
(let (($x1449 (and (= (mod (+ ?x2390 (+ 0 (div ?x2587 12))) 4) 0) (and (distinct (mod (+ ?x2390 (+ 0 (div ?x2587 12))) 100) 0) true))))
(let (($x944 (or $x1449 (= (mod (+ ?x2390 (+ 0 (div ?x2587 12))) 400) 0))))
(let ((?x1293 (ite (= ?x354 2) (ite $x944 29 28) ?x3135)))
(let ((?x265 (ite (> 1 ?x1204) 1 (ite (> ?x1204 ?x1293) ?x1293 ?x1204))))
(let ((?x1778 (ite (> 1 ?x265) 1 (ite (> ?x265 ?x1293) ?x1293 ?x265))))
(let ((?x2760 (ite (= 2 ?x354) (ite $x944 31 31) (ite (= 1 ?x354) (ite $x944 0 0) 0))))
(let ((?x562 (ite (= 4 ?x354) (ite $x944 91 90) (ite (= 3 ?x354) (ite $x944 60 59) ?x2760))))
(let ((?x2171 (ite (= 6 ?x354) (ite $x944 152 151) (ite (= 5 ?x354) (ite $x944 121 120) ?x562))))
(let ((?x863 (ite (= 8 ?x354) (ite $x944 213 212) (ite (= 7 ?x354) (ite $x944 182 181) ?x2171))))
(let ((?x2925 (ite (= 10 ?x354) (ite $x944 274 273) (ite (= 9 ?x354) (ite $x944 244 243) ?x863))))
(let ((?x1964 (ite (= 12 ?x354) (ite $x944 335 334) (ite (= 11 ?x354) (ite $x944 305 304) ?x2925))))
(let ((?x3670 (+ (* 365 (- (+ ?x2390 (+ 0 (div ?x2587 12))) 1)) (div (- (+ ?x2390 (+ 0 (div ?x2587 12))) 1) 4))))
(let ((?x2876 (+ (- ?x3670 (div (- (+ ?x2390 (+ 0 (div ?x2587 12))) 1) 100)) (div (- (+ ?x2390 (+ 0 (div ?x2587 12))) 1) 400))))
(let ((?x460 (+ (+ (- (+ (+ ?x2876 ?x1964) (- ?x1778 1)) 730179) 0) 730179)))
(let ((?x394 (mod ?x460 146097)))
(let ((?x271 (div ?x394 36524)))
(let ((?x307 (ite (<= 4 ?x271) 3 ?x271)))
(let ((?x831 (- ?x394 (* ?x307 36524))))
(let ((?x2451 (mod ?x831 1461)))
(let ((?x3392 (div ?x2451 365)))
(let ((?x2548 (ite (<= 4 ?x3392) 3 ?x3392)))
(let ((?x1316 (+ (+ (* (div ?x460 146097) 400) (* ?x307 100)) (* (div ?x831 1461) 4))))
(let ((?x3295 (+ (+ ?x1316 ?x2548) 1)))
(let (($x3618 (or (and (= (mod ?x3295 4) 0) (and (distinct (mod ?x3295 100) 0) true)) (= (mod ?x3295 400) 0))))
(let ((?x543 (- ?x2451 (* ?x2548 365))))
(let ((?x1279 (ite $x3618 31 31)))
(let (($x1340 (>= ?x543 ?x1279)))
(let ((?x1108 (ite $x1340 (+ (- ?x543 ?x1279) 1) (+ (- ?x543 (ite $x3618 0 0)) 1))))
(let ((?x2185 (ite $x3618 60 59)))
(let (($x2260 (>= ?x543 ?x2185)))
(let ((?x2190 (ite $x3618 91 90)))
(let (($x1035 (>= ?x543 ?x2190)))
(let ((?x2898 (ite $x1035 (+ (- ?x543 ?x2190) 1) (ite $x2260 (+ (- ?x543 ?x2185) 1) ?x1108))))
(let ((?x991 (ite $x3618 121 120)))
(let (($x2702 (>= ?x543 ?x991)))
(let ((?x844 (ite $x3618 152 151)))
(let (($x469 (>= ?x543 ?x844)))
(let ((?x768 (ite $x469 (+ (- ?x543 ?x844) 1) (ite $x2702 (+ (- ?x543 ?x991) 1) ?x2898))))
(let ((?x2077 (ite $x3618 182 181)))
(let (($x3081 (>= ?x543 ?x2077)))
(let ((?x795 (ite $x3618 213 212)))
(let (($x406 (>= ?x543 ?x795)))
(let ((?x241 (ite $x406 (+ (- ?x543 ?x795) 1) (ite $x3081 (+ (- ?x543 ?x2077) 1) ?x768))))
(let ((?x3102 (ite $x3618 244 243)))
(let (($x372 (>= ?x543 ?x3102)))
(let ((?x629 (ite $x3618 274 273)))
(let (($x442 (>= ?x543 ?x629)))
(let ((?x547 (ite $x442 (+ (- ?x543 ?x629) 1) (ite $x372 (+ (- ?x543 ?x3102) 1) ?x241))))
(let ((?x1014 (ite $x3618 305 304)))
(let (($x2340 (>= ?x543 ?x1014)))
(let ((?x3027 (ite $x3618 335 334)))
(let (($x264 (>= ?x543 ?x3027)))
(let ((?x615 (ite $x264 (+ (- ?x543 ?x3027) 1) (ite $x2340 (+ (- ?x543 ?x1014) 1) ?x547))))
(let (($x573 (= 0 0)))
(let (($x720 (= (mod (ite $x573 (+ ?x2390 (+ 0 (div ?x2587 12))) ?x3295) 400) 0)))
(let (($x1047 (and (distinct (mod (ite $x573 (+ ?x2390 (+ 0 (div ?x2587 12))) ?x3295) 100) 0) true)))
(let (($x256 (= (mod (ite $x573 (+ ?x2390 (+ 0 (div ?x2587 12))) ?x3295) 4) 0)))
(let (($x390 (or (and $x256 $x1047) $x720)))
(let ((?x1264 (ite $x2702 5 (ite $x1035 4 (ite $x2260 3 (ite $x1340 2 1))))))
(let ((?x2012 (ite $x372 9 (ite $x406 8 (ite $x3081 7 (ite $x469 6 ?x1264))))))
(let ((?x557 (ite $x573 ?x354 (ite $x264 12 (ite $x2340 11 (ite $x442 10 ?x2012))))))
(let ((?x251 (ite (= 2 ?x557) (ite $x390 31 31) (ite (= 1 ?x557) (ite $x390 0 0) 0))))
(let ((?x571 (ite (= 4 ?x557) (ite $x390 91 90) (ite (= 3 ?x557) (ite $x390 60 59) ?x251))))
(let ((?x1315 (ite (= 6 ?x557) (ite $x390 152 151) (ite (= 5 ?x557) (ite $x390 121 120) ?x571))))
(let ((?x1817 (ite (= 8 ?x557) (ite $x390 213 212) (ite (= 7 ?x557) (ite $x390 182 181) ?x1315))))
(let ((?x2214 (ite (= 10 ?x557) (ite $x390 274 273) (ite (= 9 ?x557) (ite $x390 244 243) ?x1817))))
(let ((?x700 (ite (= 12 ?x557) (ite $x390 335 334) (ite (= 11 ?x557) (ite $x390 305 304) ?x2214))))
(let ((?x1586 (+ ?x2390 (+ 0 (div ?x2587 12)))))
(let ((?x809 (ite $x573 ?x1586 ?x3295)))
(let ((?x625 (- ?x809 1)))
(let ((?x876 (+ (- (+ (* 365 ?x625) (div ?x625 4)) (div ?x625 100)) (div ?x625 400))))
(= (- (+ (+ ?x876 ?x700) (- (ite $x573 ?x1778 ?x615) 1)) 730179) 6938)))))))))))))))))))))))))))))))))))))))))))))))))))))))))))))))))))))))))))))))))))))))))))))))))))))))))))))))))))))))
(check-sat)
